=obj=                -66729
C0001                37
C0002                1
C0003                1
C0004                1
C0005                1
C0006                1
C0007                1
C0008                1
C0009                1
C0010                1
C0011                1
C0012                1
C0013                1
C0014                1
C0015                1
C0016                1
C0017                1
C0018                1
C0019                1
C0020                1
C0021                1
C0022                1
C0023                1
C0024                1
C0025                1
C0026                1
C0027                1
C0028                1
C0029                1
C0030                1
C0031                1
C0032                1
C0033                1
C0034                1
C0035                1
C0036                1
C0037                1
C0038                1
C0039                1
C0040                1
C0041                1
C0042                1
C0043                1
C0044                1
C0045                1
C0046                1
C0047                1
C0048                1
C0049                1
C0050                1
C0051                1
C0052                1
C0053                1
C0054                1
C0055                1
C0056                1
C0057                1
C0058                1
C0059                1
C0060                1
C0061                1
C0062                1
C0063                1
C0064                1
C0065                1
C0066                1
C0067                1
C0068                1
C0069                1
C0070                1
C0071                1
C0072                1
C0073                1
C0074                1
C0075                1
C0076                1
C0077                1
C0078                1
C0079                1
C0080                1
C0081                1
C0082                1
C0083                1
C0084                1
C0085                1
C0086                1
C0087                1
C0088                1
C0089                1
C0090                1
C0091                1
C0092                1
C0093                1
C0094                1
C0095                1
C0096                1
C0097                1
C0098                1
C0099                1
C0100                1
C0101                1
C0102                0
C0103                0
C0104                0
C0105                0
C0106                0
C0107                0
C0108                0
C0109                0
C0110                0
C0111                0
C0112                0
C0113                0
C0114                0
C0115                0
C0116                0
C0117                0
C0118                0
C0119                0
C0120                0
C0121                0
C0122                0
C0123                0
C0124                0
C0125                0
C0126                0
C0127                0
C0128                0
C0129                0
C0130                0
C0131                0
C0132                0
C0133                0
C0134                0
C0135                0
C0136                0
C0137                0
C0138                0
C0139                0
C0140                0
C0141                0
C0142                0
C0143                0
C0144                0
C0145                0
C0146                0
C0147                0
C0148                0
C0149                0
C0150                0
C0151                0
C0152                5
C0153                5
C0154                3
C0155                1
C0156                2
C0157                3
C0158                3
C0159                8
C0160                8
C0161                8
C0162                0
C0163                4
C0164                7
C0165                7
C0166                6
C0167                1
C0168                4
C0169                1
C0170                4
C0171                4
C0172                1
C0173                7
C0174                6
C0175                7
C0176                5
C0177                2
C0178                2
C0179                4
C0180                5
C0181                2
C0182                5
C0183                6
C0184                1
C0185                8
C0186                7
C0187                1
C0188                2
C0189                6
C0190                6
C0191                6
C0192                6
C0193                7
C0194                3
C0195                7
C0196                7
C0197                5
C0198                8
C0199                6
C0200                7
C0201                4
C0202                7
C0203                3
C0204                3
C0205                8
C0206                8
C0207                8
C0208                8
C0209                0
C0210                4
C0211                8
C0212                1
C0213                4
C0214                7
C0215                2
C0216                6
C0217                5
C0218                3
C0219                7
C0220                0
C0221                4
C0222                0
C0223                2
C0224                2
C0225                5
C0226                4
C0227                1
C0228                3
C0229                3
C0230                1
C0231                5
C0232                5
C0233                5
C0234                3
C0235                4
C0236                2
C0237                1
C0238                1
C0239                4
C0240                6
C0241                1
C0242                4
C0243                4
C0244                4
C0245                2
C0246                6
C0247                8
C0248                6
C0249                1
C0250                3
C0251                1
